(set-info :smt-lib-version 2.6)
(set-logic QF_S)
(set-info :source |
Generated by: Shaoke Cui
Generated on: 2025-04-10
Application: Using String Solvers to solve string matching problems
Target solver: cvc5, OSTRICH, Z3, Z3alpha, Z3-noodler
Benchmarks for substring matching problem, which needs to determine whether the pattern string exists in the text string.
|)
(set-info :license "https://creativecommons.org/licenses/by/4.0/")
(set-info :category "crafted")
(set-info :status sat)
(declare-fun a1() String)
(declare-fun a2() String)
(declare-fun a3() String)
(declare-fun a4() String)
(declare-fun a5() String)
(declare-fun a6() String)
(declare-fun a7() String)
(declare-fun a8() String)
(declare-fun a9() String)
(declare-fun a10() String)
(declare-fun a11() String)
(declare-fun a12() String)
(declare-fun a13() String)
(declare-fun a14() String)
(declare-fun a15() String)
(declare-fun a16() String)
(declare-fun a17() String)
(declare-fun a18() String)
(declare-fun a19() String)
(declare-fun a20() String)
(declare-fun a21() String)
(declare-fun a22() String)
(declare-fun a23() String)
(declare-fun a24() String)
(declare-fun a25() String)
(declare-fun a26() String)
(declare-fun a27() String)
(declare-fun a28() String)
(declare-fun a29() String)
(declare-fun a30() String)
(assert (= a1 "BBBBBBBBBBBBBBBBBBBBBBBBBBBBBBBBBBBBBBBBBBBBBBBBBBBBBBBBBBBBBBBBBBBBBBBBBBBBBBBBBBBBBBBBBBBBBBBBBBBBBBBBBBBBBBBBBBBBBBBBBBBBBBBBBBBBBBBBBBBBBBBBBBBBBBBBBBBBBBBB"))
(assert (= a2 "BBBBBBBBBBBBBBBBBBBBBBBBBBBBBBBBBBBBBBBBBBBBBBBBBBBBBBBBBBBBBBBBBBBBBBBBBBBBBBBBBBBBBBBBBBBBBBBBBBBBBBBBBBBBBBBBBBBBBBBBBBBBBBBBBBBBBBBBBBBBBBBBBBBBBBBBBBBBBBBB"))
(assert (= a3 "BBBBBBBBBBBBBBBBBBBBBBBBBBBBBBBBBBBBBBBBBBBBBBBBBBBBBBBBBBBBBBBBBBBBBBBBBBBBBBBBBBBBBBBBBBBBBBBBBBBBBBBBBBBBBBBBBBBBBBBBBBBBBBBBBBBBBBBBBBBBBBBBBBBBBBBBBBBBBBBB"))
(assert (= a4 "BBBBBBBBBBBBBBBBBBBBBBBBBBBBBBBBBBBBBBBBBBBBBBBBBBBBBBBBBBBBBBBBBBBBBBBBBBBBBBBBBBBBBBBBBBBBBBBBBBBBBBBBBBBBBBBBBBBBBBBBBBBBBBBBBBBBBBBBBBBBBBBBBBBBBBBBBBBBBBBB"))
(assert (= a5 "BBBBBBBBBBBBBBBBBBBBBBBBBBBBBBBBBBBBBBBBBBBBBBBBBBBBBBBBBBBBBBBBBBBBBBBBBBBBBBBBBBBBBBBBBBBBBBBBBBBBBBBBBBBBBBBBBBBBBBBBBBBBBBBBBBBBBBBBBBBBBBBBBBBBBBBBBBBBBBBB"))
(assert (= a6 "BBBBBBBBBBBBBBBBBBBBBBBBBBBBBBBBBBBBBBBBBBBBBBBBBBBBBBBBBBBBBBBBBBBBBBBBBBBBBBBBBBBBBBBBBBBBBBBBBBBBBBBBBBBBBBBBBBBBBBBBBBBBBBBBBBBBBBBBBBBBBBBBBBBBBBBBBBBBBBBB"))
(assert (= a7 "BBBBBBBBBBBBBBBBBBBBBBBBBBBBBBBBBBBBBBBBBBBBBBBBBBBBBBBBBBBBBBBBBBBBBBBBBBBBBBBBBBBBBBBBBBBBBBBBBBBBBBBBBBBBBBBBBBBBBBBBBBBBBBBBBBBBBBBBBBBBBBBBBBBBBBBBBBBBBBBB"))
(assert (= a8 "BBBBBBBBBBBBBBBBBBBBBBBBBBBBBBBBBBBBBBBBBBBBBBBBBBBBBBBBBBBBBBBBBBBBBBBBBBBBBBBBBBBBBBBBBBBBBBBBBBBBBBBBBBBBBBBBBBBBBBBBBBBBBBBBBBBBBBBBBBBBBBBBBBBBBBBBBBBBBBBB"))
(assert (= a9 "BBBBBBBBBBBBBBBBBBBBBBBBBBBBBBBBBBBBBBBBBBBBBBBBBBBBBBBBBBBBBBBBBBBBBBBBBBBBBBBBBBBBBBBBBBBBBBBBBBBBBBBBBBBBBBBBBBBBBBBBBBBBBBBBBBBBBBBBBBBBBBBBBBBBBBBBBBBBBBBB"))
(assert (= a10 "BBBBBBBBBBBBBBBBBBBBBBBBBBBBBBBBBBBBBBBBBBBBBBBBBBBBBBBBBBBBBBBBBBBBBBBBBBBBBBBBBBBBBBBBBBBBBBBBBBBBBBBBBBBBBBBBBBBBBBBBBBBBBBBBBBBBBBBBBBBBBBBBBBBBBBBBBBBBBBBB"))
(assert (= a11 "BBBBBBBBBBBBBBBBBBBBBBBBBBBBBBBBBBBBBBBBBBBBBBBBBBBBBBBBBBBBBBBBBBBBBBBBBBBBBBBBBBBBBBBBBBBBBBBBBBBBBBBBBBBBBBBBBBBBBBBBBBBBBBBBBBBBBBBBBBBBBBBBBBBBBBBBBBBBBBBB"))
(assert (= a12 "BBBBBBBBBBBBBBBBBBBBBBBBBBBBBBBBBBBBBBBBBBBBBBBBBBBBBBBBBBBBBBBBBBBBBBBBBBBBBBBBBBBBBBBBBBBBBBBBBBBBBBBBBBBBBBBBBBBBBBBBBBBBBBBBBBBBBBBBBBBBBBBBBBBBBBBBBBBBBBBB"))
(assert (= a13 "BBBBBBBBBBBBBBBBBBBBBBBBBBBBBBBBBBBBBBBBBBBBBBBBBBBBBBBBBBBBBBBBBBBBBBBBBBBBBBBBBBBBBBBBBBBBBBBBBBBBBBBBBBBBBBBBBBBBBBBBBBBBBBBBBBBBBBBBBBBBBBBBBBBBBBBBBBBBBBBB"))
(assert (= a14 "BBBBBBBBBBBBBBBBBBBBBBBBBBBBBBBBBBBBBBBBBBBBBBBBBBBBBBBBBBBBBBBBBBBBBBBBBBBBBBBBBBBBBBBBBBBBBBBBBBBBBBBBBBBBBBBBBBBBBBBBBBBBBBBBBBBBBBBBBBBBBBBBBBBBBBBBBBBBBBBB"))
(assert (= a15 "BBBBBBBBBBBBBBBBBBBBBBBBBBBBBBBBBBBBBBBBBBBBBBBBBBBBBBBBBBBBBBBBBBBBBBBBBBBBBBBBBBBBBBBBBBBBBBBBBBBBBBBBBBBBBBBBBBBBBBBBBBBBBBBBBBBBBBBBBBBBBBBBBBBBBBBBBBBBBBBB"))
(assert (= a16 "BBBBBBBBBBBBBBBBBBBBBBBBBBBBBBBBBBBBBBBBBBBBBBBBBBBBBBBBBBBBBBBBBBBBBBBBBBBBBBBBBBBBBBBBBBBBBBBBBBBBBBBBBBBBBBBBBBBBBBBBBBBBBBBBBBBBBBBBBBBBBBBBBBBBBBBBBBBBB"))
(assert (= a17 "BBBBBBBBBBBBBBBBBBBBBBBBBBBBBBBBBBBBBBBBBBBBBBBBBBBBBBBBBBBBBBBBBBBBBBBBBBBBBBBBBBBBBBBBBBBBBBBBBBBBBBBBBBBBBBBBBBBBBBBBBBBBBBBBBBBBBBBBBBBBBBBBBBBBBBBBBBBBB"))
(assert (= a18 "BBBBBBBBBBBBBBBBBBBBBBBBBBBBBBBBBBBBBBBBBBBBBBBBBBBBBBBBBBBBBBBBBBBBBBBBBBBBBBBBBBBBBBBBBBBBBBBBBBBBBBBBBBBBBBBBBBBBBBBBBBBBBBBBBBBBBBBBBBBBBBBBBBBBBBBBBBBBB"))
(assert (= a19 "BBBBBBBBBBBBBBBBBBBBBBBBBBBBBBBBBBBBBBBBBBBBBBBBBBBBBBBBBBBBBBBBBBBBBBBBBBBBBBBBBBBBBBBBBBBBBBBBBBBBBBBBBBBBBBBBBBBBBBBBBBBBBBBBBBBBBBBBBBBBBBBBBBBBBBBBBBBBB"))
(assert (= a20 "BBBBBBBBBBBBBBBBBBBBBBBBBBBBBBBBBBBBBBBBBBBBBBBBBBBBBBBBBBBBBBBBBBBBBBBBBBBBBBBBBBBBBBBBBBBBBBBBBBBBBBBBBBBBBBBBBBBBBBBBBBBBBBBBBBBBBBBBBBBBBBBBBBBBBBBBBBBBB"))
(assert (= a21 "BBBBBBBBBBBBBBBBBBBBBBBBBBBBBBBBBBBBBBBBBBBBBBBBBBBBBBBBBBBBBBBBBBBBBBBBBBBBBBBBBBBBBBBBBBBBBBBBBBBBBBBBBBBBBBBBBBBBBBBBBBBBBBBBBBBBBBBBBBBBBBBBBBBBBBBBBBBBB"))
(assert (= a22 "BBBBBBBBBBBBBBBBBBBBBBBBBBBBBBBBBBBBBBBBBBBBBBBBBBBBBBBBBBBBBBBBBBBBBBBBBBBBBBBBBBBBBBBBBBBBBBBBBBBBBBBBBBBBBBBBBBBBBBBBBBBBBBBBBBBBBBBBBBBBBBBBBBBBBBBBBBBBB"))
(assert (= a23 "BBBBBBBBBBBBBBBBBBBBBBBBBBBBBBBBBBBBBBBBBBBBBBBBBBBBBBBBBBBBBBBBBBBBBBBBBBBBBBBBBBBBBBBBBBBBBBBBBBBBBBBBBBBBBBBBBBBBBBBBBBBBBBBBBBBBBBBBBBBBBBBBBBBBBBBBBBBBB"))
(assert (= a24 "BBBBBBBBBBBBBBBBBBBBBBBBBBBBBBBBBBBBBBBBBBBBBBBBBBBBBBBBBBBBBBBBBBBBBBBBBBBBBBBBBBBBBBBBBBBBBBBBBBBBBBBBBBBBBBBBBBBBBBBBBBBBBBBBBBBBBBBBBBBBBBBBBBBBBBBBBBBBB"))
(assert (= a25 "BBBBBBBBBBBBBBBBBBBBBBBBBBBBBBBBBBBBBBBBBBBBBBBBBBBBBBBBBBBBBBBBBBBBBBBBBBBBBBBBBBBBBBBBBBBBBBBBBBBBBBBBBBBBBBBBBBBBBBBBBBBBBBBBBBBBBBBBBBBBBBBBBBBBBBBBBBBBB"))
(assert (= a26 "BBBBBBBBBBBBBBBBBBBBBBBBBBBBBBBBBBBBBBBBBBBBBBBBBBBBBBBBBBBBBBBBBBBBBBBBBBBBBBBBBBBBBBBBBBBBBBBBBBBBBBBBBBBBBBBBBBBBBBBBBBBBBBBBBBBBBBBBBBBBBBBBBBBBBBBBBBBBB"))
(assert (= a27 "BBBBBBBBBBBBBBBBBBBBBBBBBBBBBBBBBBBBBBBBBBBBBBBBBBBBBBBBBBBBBBBBBBBBBBBBBBBBBBBBBBBBBBBBBBBBBBBBBBBBBBBBBBBBBBBBBBBBBBBBBBBBBBBBBBBBBBBBBBBBBBBBBBBBBBBBBBBBB"))
(assert (= a28 "BBBBBBBBBBBBBBBBBBBBBBBBBBBBBBBBBBBBBBBBBBBBBBBBBBBBBBBBBBBBBBBBBBBBBBBBBBBBBBBBBBBBBBBBBBBBBBBBBBBBBBBBBBBBBBBBBBBBBBBBBBBBBBBBBBBBBBBBBBBBBBBBBBBBBBBBBBBBB"))
(assert (= a29 "BBBBBBBBBBBBBBBBBBBBBBBBBBBBBBBBBBBBBBBBBBBBBBBBBBBBBBBBBBBBBBBBBBBBBBBBBBBBBBBBBBBBBBBBBBBBBBBBBBBBBBBBBBBBBBBBBBBBBBBBBBBBBBBBBBBBBBBBBBBBBBBBBBBBBBBBBBBBB"))
(assert (= a30 "BBBBBBBBBBBBBBBBBBBBBBBBBBBBBBBBBBBBBBBBBBBBBBBBBBBBBBBBBBBBBBBBBBBBBBBBBBBBBBBBBBBBBBBBBBBBBBBBBBBBBBBBBBBBBBBBBBBBBBBBBBBBBBBBBBBBBBBBBBBBBBBBBBBBBBBBBBBBB"))
(assert (str.contains (str.++ a2 a12 a8 a14 a1 a15 a4 a8 a15 a1 a7 a12 a10 a6 a3 a11 a8 a10 a15 a15 a6 a8 a5 a6 a5 a6 a7 a9 a6 a9 a7 a6 a1 a13 a11 a12 a5 a14 a11 a13 a1 a4 a15 a2 a15 a4 a8 a2 a14 a14 a9 a13 a8 a1 a13 a15 a3 a9 a9 a10 a4 a14 a6 a10 a9 a8 a15 a8 a10 a14 a12 a8 a15 a9 a7 a9 a10 a5 a15 a4 a6 a12 a3 a9 a10 a2 a8 a12 a7 a6 a6 a1 a5 a7 a6 a12 a12 a10 a12 a15 a7 a7 a9 a11 a4 a5 a4 a6 a11 a15 a8 a4 a2 a1 a5 a6 a3 a13 a12 a10 a6 a10 a9 a5 a1 a2 a9 a14 a5 a4 a3 a8 a8 a5 a5 a13 a2 a1 a4 a12 a7 a12 a9 a15 a1 a14 a6 a9 a9 a2 a12 a14 a5 a14 a9 a10 a12 a15 a4 a7 a4 a13 a10 a3 a8 a2 a14 a1 a11 a2 a11 a14 a6 a8 a7 a13 a6 a10 a13 a3 a11 a8 a13 a1 a2 a6 a15 a13 a15 a5 a13 a1 a13 a12 a6 a1 a10 a7 a1 a5 a11 a10 a12 a11 a2 a6 a1 a5 a9 a1 a14 a5 a9 a12 a11 a7 a1 a6 a8 a9 a2 a4 a2 a13 a9 a7 a3 a10 a13 a11 a6 a5 a9 a1 a10 a6 a11 a8 a2 a12 a5 a14 a1 a7 a11 a6 a12 a13 a14 a14 a13 a7 a10 a5 a7 a8 a14 a1 a6 a3 a4 a12 a7 a12 a4 a10 a1 a8 a12 a10 a15 a13 a7 a8 a7 a12 a9 a9 a6 a9 a9 a9 a5 a11 a12 a6 a11 a6 a7 a4 a9 a8 a3 a1 a11 a15 a3 a4 a2 a13 a3 a7 a2 a15 a13 a10 a4 a14 a8 a10 a4 a7 a9 a1 a2 a14 a7 a11 a9 a3 a9 a12 a3 a10 a5 a3 a15 a7 a10 a13 a15 a14 a10 a7 a2 a7 a8 a7 a12 a14 a11 a11 a9 a12 a2 a13 a3 a14 a12 a2 a6 a2 a6 a7 a6 a3 a12 a10 a11 a8 a8 a2 a3 a6 a10 a7 a5 a12 a5 a12 a1 a2 a8 a8 a13 a2 a5 a9 a13 a7 a8 a8 a13 a12 a3 a11 a3 a9 a2 a9 a11 a10 a15 a12 a10 a4 a12 a14 a1 a8 a8 a9 a4 a13 a14 a4 a14 a11 a14 a14 a1 a6 a14 a2 a15 a14 a7 a5 a15 a8 a3 a12 a6 a13 a6 a13 a5 a15 a10 a8 a9 a12 a15 a8 a14 a9 a13 a11 a6 a6 a11 a10 a5 a13 a3 a15 a7 a13 a3 a7 a1 a13 a8 a3 a14 a4 a8 a5 a9 a2 a14 a10 a11 a2 a11 a6 a5 a1 a11 a5 a14 a12 a5 a13 a12 a11 a3 a3 a13 a11 a1 a12 a12 a14 a1 a10 a10 a15 a6 a15 a10 a8 a8 a5 a11 a12 a15 a12 a2 a4 a9 a3 a11 a11 a9 a6 a9 a2 a3 a12 a1 a4 a2 a11 a3 a7 a12 a15 a3 a14 a14 a2 a6 a8 a15 a14 a11 a6 a13 a13 a15 a12 a14 a4 a10 a9 a12 a10 a6 a13 a1 a7 a13 a7 a15 a2 a9 a11 a4 a11 a6 a6 a5 a5 a1 a6 a10 a8 a15 a6 a12 a10 a10 a14 a10 a3 a7 a5 a11 a11 a13 a1 a8 a11 a13 a10 a9 a6 a2 a12 a8 a14 a6 a7 a9 a12 a5 a15 a7 a1 a15 a13 a2 a3 a3 a9 a8 a15 a13 a11 a13 a15 a5 a13 a5 a8 a13 a6 a6 a5 a8 a3 a13 a13 a15 a10 a6 a1 a11 a14 a3 a9 a1 a11 a13 a6 a12 a5 a9 a7 a4 a7 a13 a6 a11 a8 a2 a9 a10 a2 a12 a3 a13 a15 a3 a11 a12 a4 a11 a8 a10 a4 a10 a10 a2 a8 a5 a14 a2 a8 a2 a9 a2 a9 a5 a7 a4 a15 a14 a2 a5 a3 a7 a1 a4 a9 a14 a6 a15 a4 a8 a13 a12 a8 a10 a6 a6 a3 a1 a1 a3 a9 a9 a8 a9 a13 a3 a9 a4 a15 a11 a7 a5 a15 a12 a1 a13 a5 a13 a3 a12 a6 a1 a2 a4 a13 a1 a7 a12 a15 a3 a5 a12 a6 a7 a5 a10 a3 a15 a5 a11 a5 a13 a5 a13 a15 a11 a5 a15 a12 a11 a15 a4 a6 a7 a9 a5 a1 a11 a2 a3 a9 a6 a6 a15 a12 a3 a8 a15 a11 a11 a8 a5 a12 a13 a11 a6 a14 a12 a7 a12 a10 a4 a2 a10 a1 a2 a9 a1 a9 a11 a8 a8 a11 a5 a5 a11 a2 a8 a11 a14 a1 a6 a14 a5 a13 a5 a1 a14 a5 a11 a6 a15 a9 a15 a13 a5 a1 a11 a2 a6 a5 a15 a3 a9 a15 a9 a6 a8 a5 a13 a8 a3 a13 a8 a10 a14 a10 a9 a1 a14 a6 a12 a15 a10 a9 a2 a7 a12 a14 a15 a4 a4 a8 a1 a3 a3 a11 a1 a5 a14 a7 a8 a14 a4 a14 a4 a9 a10 a8 a8 a6 a1 a5 a5 a6 a6 a14 a9 a10 a10 a8 a5 a10 a2 a12 a12 a7 a5 a15 a5 a15 a11 a10 a14 a2 a1 a1 a15 a5 a2 a13 a11 a6 a12 a6 a2 a10 a11 a1 a4 a13 a3 a9 a5 a13 a8 a4 a10 a1 a2 a4 a15 a5 a1 a4 a12 a7 a5 a13 a9 a11 a13 a9 a14 a3 a7 a15 a14 a13 a6 a10 a8 a4 a14 a3 a13 a15 a11 a14 a15 a5 a14 a7 a15 a15 a15 a5 a7 a6 a15 a14 a1 a3 a10 a5 a11 a2 a7 a2 a13 a5 a6 a6 a11 a6 a3 a10 a8 a1 a11 a13 a12 a3 a11 a3 a4 a12 a15 a10 a9 a13 a10 a14 a14 a11 a7 a14 a2 a7 a4 a15 a10 a10 a8 a8 a13 a1 a13 a15 a9 a15 a5 a8 a15 a15 a5 a6 a8 a15 a8 a1 a10 a8 a7 a11 a15 a12 a3 a5 a7 a14 a7 a15 a4 a15 a4 a5 a9 a4 a15 a15 a5 a4 a4 a12 a7 a4 a9 a3 a3 a15 a4 a11 a10 a8 a4 a11 a12 a2 a5 a13 a1 a8 a5 a11 a9 a9 a10 a6 a14 a13 a7 a5 a1 a1 a7 a9 a15 a3 a12 a12 a3 a9 a7 a2 a2 a12 a13 a5 a12 a2 a3 a15 a5 a7 a6 a8 a7 a13 a9 a8 a4 a11 a14 a6 a13 a3 a12 a15 a11 a6 a9 a7 a4 a7 a15 a15 a9 a7 a15 a7 a2 a4 a3 a6 a5 a13 a3 a11 a7 a5 a14 a10 a2 a6 a13 a8 a7 a2 a2 a8 a11 a11 a10 a7 a9 a12 a8 a12 a9 a9 a8 a13 a4 a14 a1 a1 a4 a15 a6 a15 a4 a4 a15 a4 a13 a6 a7 a6 a13 a12 a4 a7 a15 a1 a6 a1 a13 a14 a13 a12 a15 a7 a6 a5 a2 a11 a9 a13 a14 a14 a12 a2 a11 a1 a9 a14 a15 a2 a12 a7 a8 a7 a7 a8 a13 a8 a2 a2 a12 a15 a15 a11 a7 a8 a7 a12 a9 a10 a14 a13 a12 a3 a12 a4 a15 a7 a2 a3 a2 a1 a6 a1 a9 a15 a14 a4 a10 a13 a8 a3 a11 a7 a8 a8 a1 a9 a4 a7 a10 a2 a10 a5 a5 a6 a15 a15 a3 a13 a15 a1 a2 a3 a8 a14 a9 a15 a8 a11 a15 a12 a4 a14 a7 a14 a15 a15 a14 a2 a7 a2 a11 a6 a5 a3 a2 a3 a3 a13 a8 a12 a14 a2 a4 a9 a4 a8 a1 a10 a7 a12 a4 a6 a12 a14 a6 a1 a7 a12 a5 a4 a11 a5 a8 a13 a4 a11 a1 a3 a7 a6 a15 a15 a3 a6 a10 a10 a12 a7 a8 a2 a3 a8 a7 a13 a13 a15 a14 a1 a3 a3 a10 a5 a6 a2 a8 a10 a10 a13 a12 a15 a10 a1 a3 a6 a1 a15 a13 a13 a9 a12 a15 a12 a6 a14 a11 a13 a14 a9 a14 a12 a5 a3 a4 a6 a1 a15 a2 a15 a13 a8 a2 a14 a1 a6 a10 a4 a4 a3 a2 a7 a10 a11 a11 a8 a4 a7 a2 a15 a15 a15 a5 a6 a14 a2 a7 a8 a7 a14 a6 a9 a4 a8 a6 a13 a1 a6 a11 a4 a4 a2 a11 a6 a12 a5 a14 a11 a8 a12 a2 a8 a12 a6 a14 a3 a7 a8 a5 a12 a3 a13 a2 a1 a1 a6 a11 a2 a14 a15 a13 a14 a12 a8 a6 a10 a12 a8 a13 a3 a4 a5 a10 a11 a12 a10 a11 a2 a5 a10 a4 a5 a5 a5 a5 a9 a11 a2 a11 a5 a9 a5 a5 a12 a8 a4 a14 a1 a12 a5 a1 a1 a14 a2 a9 a11 a2 a12 a10 a3 a9 a15 a12 a1 a14 a6 a3 a6 a4 a6 a13 a5 a1 a15 a11 a6 a9 a2 a9 a12 a7 a8 a4 a12 a9 a11 a10 a14 a2 a11 a4 a1 a3 a12 a9 a4 a14 a3 a15 a11 a3 a15 a5 a10 a10 a4 a15 a2 a8 a4 a14 a7 a2 a10 a11 a8 a12 a3 a6 a9 a10 a10 a4 a7 a8 a8 a6 a1 a5 a15 a15 a15 a14 a4 a2 a15 a11 a11 a9 a14 a12 a7 a7 a15 a10 a11 a8 a8 a15 a12 a1 a1 a9 a2 a5 a10 a13 a10 a8 a11 a6 a3 a14 a8 a3 a3 a7 a12 a12 a3 a11 a3 a9 a10 a7 a12 a14 a13 a15 a1 a2 a2 a11 a1 a3 a5 a6 a8 a15 a7 a8 a9 a3 a9 a11 a3 a10 a12 a5 a13 a4 a15 a9 a14 a14 a10 a15 a7 a6 a14 a15 a14 a11 a11 a10 a9 a8 a7 a15 a8 a4 a6 a7 a12 a13 a12 a9 a13 a11 a4 a2 a13 a15 a12 a4 a11 a10 a8 a12 a5 a9 a2 a12 a14 a7 a15 a4 a1 a13 a7 a11 a1 a10 a6 a5 a3 a5 a10 a1 a10 a3 a12 a15 a13 a6 a8 a3 a3 a14 a3 a6 a13 a14 a3 a11 a13 a1 a7 a2 a9 a7 a1 a15 a2 a1 a8 a3 a12 a11 a15 a4 a5 a14 a1 a6 a12 a6 a9 a14 a3 a9 a8 a13 a8 a3 a9 a3 a11 a5 a15 a9 a7 a2 a4 a5 a15 a6 a5 a12 a2 a14 a14 a11 a11 a1 a6 a2 a5 a2 a5 a7 a4 a14 a14 a7 a1 a1 a2 a9 a11 a11 a13 a4 a11 a11 a13 a1 a14 a14 a9 a9 a13 a6 a4 a15 a3 a6 a9 a3 a7 a12 a6 a7 a12 a4 a2 a12 a6 a13 a4 a13 a5 a5 a10 a13 a13 a7 a1 a6 a2 a3 a15 a12 a7 a8 a8 a8 a7 a12 a13 a7 a8 a6 a9 a13 a5 a1 a13 a6 a8 a5 a9 a3 a15 a4 a14 a6 a11 a13 a14 a8 a8 a5 a3 a5 a1 a14 a15 a7 a4 a7 a2 a13 a7 a13 a11 a8 a15 a10 a9 a4 a14 a13 a5 a7 a1 a11 a1 a6 a8 a10 a1 a12 a9 a13 a3 a3 a3 a4 a11 a2 a13 a15 a2 a10 a9 a3 a9 a15 a13 a8 a6 a3 a1 a13 a9 a3 a10 a14 a14 a11 a1 a8 a8 a6 a11 a14 a6 a6 a5 a1 a5 a3 a10 a12 a4 a6 a8 a4 a9 a4 a6 a6 a12 a8 a9 a8 a15 a13 a6 a2 a9 a9 a3 a8 a8 a3 a2 a6 a5 a10 a3 a6 a5 a7 a15 a3 a7 a9 a14 a9 a13 a12 a9  "1" a30 a21 a19 a19 a27 a17 a18 a24 a23 a16 a23 a28 a20 a23 a19 a26 a24 a16 a27 a30 a17 a17 a28 a21 a23 a21 a18 a26 a24 a19 a22 a26 a17 a18 a22 a28 a28 a22 a17 a24 a29 a28 a25 a22 a21 a18 a19 a22 a16 a22 a25 a26 a26 a25 a20 a25 a29 a27 a16 a20 a19 a28 a22 a27 a22 a26 a30 a27 a25 a22 a20 a26 a17 a21 a21 a24 a28 a22 a25 a19 a28 a18 a25 a17 a16 a20 a29 a23 a29 a19 a20 a19 a27 a23 a28 a26 a21 a20 a17 a20 a25 a19 a27 a22 a21 a19 a29 a17 a16 a17 a17 a29 a26 a25 a18 a16 a23 a20 a17 a19 a17 a25 a28 a27 a16 a30 a21 a21 a28 a26 a16 a17 a24 a24 a24 a18 a20 a21 a27 a30 a21 a17 a18 a18 a25 a22 a25 a17 a20 a20 a21 a22 a17 a16 a26 a22 a28 a26 a23 a28 a17 a25 a26 a21 a23 a23 a18 a19 a20 a27 a22 a28 a28 a30 a30 a21 a26 a30 a28 a28 a28 a23 a23 a27 a28 a28 a22 a18 a28 a19 a26 a29 a27 a23 a21 a17 a29 a16 a17 a18 a17 a21 a20 a22 a24 a16 a17 a21 a26 a29 a29 a19 a20 a29 a29 a22 a21 a23 a30 a24 a29 a21 a19 a28 a16 a20 a17 a21 a27 ) (str.++ a21 a25 a22 a17 a23 a28 a25 a29 a23 a19 a22 a18 a27 a21 a30 a27 a20 a30 a25 a22 a21 a23 a20 a25 a18 a20 a19 a29 a21 a28 a23 a27 a27 a19 a23 a27 a22 a29 a24 a21 a27 a20 a23 a20 a29 a24 a27 a24 a26 a16 a30 a22 a16 a25 a29 a29 a29 a21 a20 a19 a27 a23 a21 a21 a24 a24 a29 a16 a20 a17 a24 a22 a23 a19 a17 a30 a28 a24 a30 a27 a21 a18 a28 a26 a22 a22 a17 a17 a20 a27 a24 a25 a26 a22 a22 a22 a30 a23 a19 a26 a24 a17 a17 a28 a27 a22 a23 a25 a16 a24 a21 a19 a29 a23 a23 a27 a23 a24 a26 a23 a24 a28 a24 a18 a30 a28 a29 a29 a17 a17 a19 a21 a28 a25 a29 a23 a19 a19 a18 a24 a24 a28 a17 a24 a23 a27 a27 a23 a19 a21 a24 a26 a27 a23 a16 a29 a19 a25 a24 a24 a30 a22 a22 a17 a25 a24 a30 a24 a17 a29 a25 a29 a16 a27 a27 a22 a20 a23 a20 a26 a24 a16 a26 a25 a21 a24 a16 a30 a17 a27 a22 a26 a28 a16 a20 a25 a25 a18 a27 a21 a19 a21 a22 a23 a20 a30 a22 a19 a29 a20 a19 a28 a21 a16 a30 a16 a30 a24 a25 a25 a21 a16 a18 a29 a21 a30  "1")))
(check-sat)
(exit)
